c Generated with `cnfgen`
c (C) 2012-2019 Massimo Lauria <massimo.lauria@uniroma1.it>
c https://massimolauria.net/cnfgen
c
c COMMAND LINE: cnfgen --seed 1 -o ./tseitin/tseitin.gnm120-150.s1.cnf tseitin --gnm 120 150 --savegraph ./tseitin/tseitin.gnm120-150.s1.graph --graphformat dot --charge randomeven
c
c Edit: Removed lines that only contained 0.
c
p cnf 150 1157
1 2 3 -4 0
1 2 -3 4 0
1 -2 3 4 0
1 -2 -3 -4 0
-1 2 3 4 0
-1 2 -3 -4 0
-1 -2 3 -4 0
-1 -2 -3 4 0
-5 0
6 7 8 9 -10 0
6 7 8 -9 10 0
6 7 -8 9 10 0
6 7 -8 -9 -10 0
6 -7 8 9 10 0
6 -7 8 -9 -10 0
6 -7 -8 9 -10 0
6 -7 -8 -9 10 0
-6 7 8 9 10 0
-6 7 8 -9 -10 0
-6 7 -8 9 -10 0
-6 7 -8 -9 10 0
-6 -7 8 9 -10 0
-6 -7 8 -9 10 0
-6 -7 -8 9 10 0
-6 -7 -8 -9 -10 0
1 -11 0
-1 11 0
12 13 14 15 0
12 13 -14 -15 0
12 -13 14 -15 0
12 -13 -14 15 0
-12 13 14 -15 0
-12 13 -14 15 0
-12 -13 14 15 0
-12 -13 -14 -15 0
-16 0
17 18 19 0
17 -18 -19 0
-17 18 -19 0
-17 -18 19 0
2 -20 0
-2 20 0
21 22 0
-21 -22 0
17 23 24 25 26 27 -28 0
17 23 24 25 26 -27 28 0
17 23 24 25 -26 27 28 0
17 23 24 25 -26 -27 -28 0
17 23 24 -25 26 27 28 0
17 23 24 -25 26 -27 -28 0
17 23 24 -25 -26 27 -28 0
17 23 24 -25 -26 -27 28 0
17 23 -24 25 26 27 28 0
17 23 -24 25 26 -27 -28 0
17 23 -24 25 -26 27 -28 0
17 23 -24 25 -26 -27 28 0
17 23 -24 -25 26 27 -28 0
17 23 -24 -25 26 -27 28 0
17 23 -24 -25 -26 27 28 0
17 23 -24 -25 -26 -27 -28 0
17 -23 24 25 26 27 28 0
17 -23 24 25 26 -27 -28 0
17 -23 24 25 -26 27 -28 0
17 -23 24 25 -26 -27 28 0
17 -23 24 -25 26 27 -28 0
17 -23 24 -25 26 -27 28 0
17 -23 24 -25 -26 27 28 0
17 -23 24 -25 -26 -27 -28 0
17 -23 -24 25 26 27 -28 0
17 -23 -24 25 26 -27 28 0
17 -23 -24 25 -26 27 28 0
17 -23 -24 25 -26 -27 -28 0
17 -23 -24 -25 26 27 28 0
17 -23 -24 -25 26 -27 -28 0
17 -23 -24 -25 -26 27 -28 0
17 -23 -24 -25 -26 -27 28 0
-17 23 24 25 26 27 28 0
-17 23 24 25 26 -27 -28 0
-17 23 24 25 -26 27 -28 0
-17 23 24 25 -26 -27 28 0
-17 23 24 -25 26 27 -28 0
-17 23 24 -25 26 -27 28 0
-17 23 24 -25 -26 27 28 0
-17 23 24 -25 -26 -27 -28 0
-17 23 -24 25 26 27 -28 0
-17 23 -24 25 26 -27 28 0
-17 23 -24 25 -26 27 28 0
-17 23 -24 25 -26 -27 -28 0
-17 23 -24 -25 26 27 28 0
-17 23 -24 -25 26 -27 -28 0
-17 23 -24 -25 -26 27 -28 0
-17 23 -24 -25 -26 -27 28 0
-17 -23 24 25 26 27 -28 0
-17 -23 24 25 26 -27 28 0
-17 -23 24 25 -26 27 28 0
-17 -23 24 25 -26 -27 -28 0
-17 -23 24 -25 26 27 28 0
-17 -23 24 -25 26 -27 -28 0
-17 -23 24 -25 -26 27 -28 0
-17 -23 24 -25 -26 -27 28 0
-17 -23 -24 25 26 27 28 0
-17 -23 -24 25 26 -27 -28 0
-17 -23 -24 25 -26 27 -28 0
-17 -23 -24 25 -26 -27 28 0
-17 -23 -24 -25 26 27 -28 0
-17 -23 -24 -25 26 -27 28 0
-17 -23 -24 -25 -26 27 28 0
-17 -23 -24 -25 -26 -27 -28 0
11 29 30 31 0
11 29 -30 -31 0
11 -29 30 -31 0
11 -29 -30 31 0
-11 29 30 -31 0
-11 29 -30 31 0
-11 -29 30 31 0
-11 -29 -30 -31 0
32 33 0
-32 -33 0
34 35 0
-34 -35 0
32 36 37 -38 0
32 36 -37 38 0
32 -36 37 38 0
32 -36 -37 -38 0
-32 36 37 38 0
-32 36 -37 -38 0
-32 -36 37 -38 0
-32 -36 -37 38 0
39 40 0
-39 -40 0
41 42 43 0
41 -42 -43 0
-41 42 -43 0
-41 -42 43 0
3 18 29 44 45 46 47 -48 0
3 18 29 44 45 46 -47 48 0
3 18 29 44 45 -46 47 48 0
3 18 29 44 45 -46 -47 -48 0
3 18 29 44 -45 46 47 48 0
3 18 29 44 -45 46 -47 -48 0
3 18 29 44 -45 -46 47 -48 0
3 18 29 44 -45 -46 -47 48 0
3 18 29 -44 45 46 47 48 0
3 18 29 -44 45 46 -47 -48 0
3 18 29 -44 45 -46 47 -48 0
3 18 29 -44 45 -46 -47 48 0
3 18 29 -44 -45 46 47 -48 0
3 18 29 -44 -45 46 -47 48 0
3 18 29 -44 -45 -46 47 48 0
3 18 29 -44 -45 -46 -47 -48 0
3 18 -29 44 45 46 47 48 0
3 18 -29 44 45 46 -47 -48 0
3 18 -29 44 45 -46 47 -48 0
3 18 -29 44 45 -46 -47 48 0
3 18 -29 44 -45 46 47 -48 0
3 18 -29 44 -45 46 -47 48 0
3 18 -29 44 -45 -46 47 48 0
3 18 -29 44 -45 -46 -47 -48 0
3 18 -29 -44 45 46 47 -48 0
3 18 -29 -44 45 46 -47 48 0
3 18 -29 -44 45 -46 47 48 0
3 18 -29 -44 45 -46 -47 -48 0
3 18 -29 -44 -45 46 47 48 0
3 18 -29 -44 -45 46 -47 -48 0
3 18 -29 -44 -45 -46 47 -48 0
3 18 -29 -44 -45 -46 -47 48 0
3 -18 29 44 45 46 47 48 0
3 -18 29 44 45 46 -47 -48 0
3 -18 29 44 45 -46 47 -48 0
3 -18 29 44 45 -46 -47 48 0
3 -18 29 44 -45 46 47 -48 0
3 -18 29 44 -45 46 -47 48 0
3 -18 29 44 -45 -46 47 48 0
3 -18 29 44 -45 -46 -47 -48 0
3 -18 29 -44 45 46 47 -48 0
3 -18 29 -44 45 46 -47 48 0
3 -18 29 -44 45 -46 47 48 0
3 -18 29 -44 45 -46 -47 -48 0
3 -18 29 -44 -45 46 47 48 0
3 -18 29 -44 -45 46 -47 -48 0
3 -18 29 -44 -45 -46 47 -48 0
3 -18 29 -44 -45 -46 -47 48 0
3 -18 -29 44 45 46 47 -48 0
3 -18 -29 44 45 46 -47 48 0
3 -18 -29 44 45 -46 47 48 0
3 -18 -29 44 45 -46 -47 -48 0
3 -18 -29 44 -45 46 47 48 0
3 -18 -29 44 -45 46 -47 -48 0
3 -18 -29 44 -45 -46 47 -48 0
3 -18 -29 44 -45 -46 -47 48 0
3 -18 -29 -44 45 46 47 48 0
3 -18 -29 -44 45 46 -47 -48 0
3 -18 -29 -44 45 -46 47 -48 0
3 -18 -29 -44 45 -46 -47 48 0
3 -18 -29 -44 -45 46 47 -48 0
3 -18 -29 -44 -45 46 -47 48 0
3 -18 -29 -44 -45 -46 47 48 0
3 -18 -29 -44 -45 -46 -47 -48 0
-3 18 29 44 45 46 47 48 0
-3 18 29 44 45 46 -47 -48 0
-3 18 29 44 45 -46 47 -48 0
-3 18 29 44 45 -46 -47 48 0
-3 18 29 44 -45 46 47 -48 0
-3 18 29 44 -45 46 -47 48 0
-3 18 29 44 -45 -46 47 48 0
-3 18 29 44 -45 -46 -47 -48 0
-3 18 29 -44 45 46 47 -48 0
-3 18 29 -44 45 46 -47 48 0
-3 18 29 -44 45 -46 47 48 0
-3 18 29 -44 45 -46 -47 -48 0
-3 18 29 -44 -45 46 47 48 0
-3 18 29 -44 -45 46 -47 -48 0
-3 18 29 -44 -45 -46 47 -48 0
-3 18 29 -44 -45 -46 -47 48 0
-3 18 -29 44 45 46 47 -48 0
-3 18 -29 44 45 46 -47 48 0
-3 18 -29 44 45 -46 47 48 0
-3 18 -29 44 45 -46 -47 -48 0
-3 18 -29 44 -45 46 47 48 0
-3 18 -29 44 -45 46 -47 -48 0
-3 18 -29 44 -45 -46 47 -48 0
-3 18 -29 44 -45 -46 -47 48 0
-3 18 -29 -44 45 46 47 48 0
-3 18 -29 -44 45 46 -47 -48 0
-3 18 -29 -44 45 -46 47 -48 0
-3 18 -29 -44 45 -46 -47 48 0
-3 18 -29 -44 -45 46 47 -48 0
-3 18 -29 -44 -45 46 -47 48 0
-3 18 -29 -44 -45 -46 47 48 0
-3 18 -29 -44 -45 -46 -47 -48 0
-3 -18 29 44 45 46 47 -48 0
-3 -18 29 44 45 46 -47 48 0
-3 -18 29 44 45 -46 47 48 0
-3 -18 29 44 45 -46 -47 -48 0
-3 -18 29 44 -45 46 47 48 0
-3 -18 29 44 -45 46 -47 -48 0
-3 -18 29 44 -45 -46 47 -48 0
-3 -18 29 44 -45 -46 -47 48 0
-3 -18 29 -44 45 46 47 48 0
-3 -18 29 -44 45 46 -47 -48 0
-3 -18 29 -44 45 -46 47 -48 0
-3 -18 29 -44 45 -46 -47 48 0
-3 -18 29 -44 -45 46 47 -48 0
-3 -18 29 -44 -45 46 -47 48 0
-3 -18 29 -44 -45 -46 47 48 0
-3 -18 29 -44 -45 -46 -47 -48 0
-3 -18 -29 44 45 46 47 48 0
-3 -18 -29 44 45 46 -47 -48 0
-3 -18 -29 44 45 -46 47 -48 0
-3 -18 -29 44 45 -46 -47 48 0
-3 -18 -29 44 -45 46 47 -48 0
-3 -18 -29 44 -45 46 -47 48 0
-3 -18 -29 44 -45 -46 47 48 0
-3 -18 -29 44 -45 -46 -47 -48 0
-3 -18 -29 -44 45 46 47 -48 0
-3 -18 -29 -44 45 46 -47 48 0
-3 -18 -29 -44 45 -46 47 48 0
-3 -18 -29 -44 45 -46 -47 -48 0
-3 -18 -29 -44 -45 46 47 48 0
-3 -18 -29 -44 -45 46 -47 -48 0
-3 -18 -29 -44 -45 -46 47 -48 0
-3 -18 -29 -44 -45 -46 -47 48 0
49 50 -51 0
49 -50 51 0
-49 50 51 0
-49 -50 -51 0
52 0
53 54 0
-53 -54 0
55 -56 0
-55 56 0
57 58 -59 0
57 -58 59 0
-57 58 59 0
-57 -58 -59 0
-41 0
23 60 61 62 0
23 60 -61 -62 0
23 -60 61 -62 0
23 -60 -61 62 0
-23 60 61 -62 0
-23 60 -61 62 0
-23 -60 61 62 0
-23 -60 -61 -62 0
24 63 64 0
24 -63 -64 0
-24 63 -64 0
-24 -63 64 0
19 -65 0
-19 65 0
44 66 67 68 0
44 66 -67 -68 0
44 -66 67 -68 0
44 -66 -67 68 0
-44 66 67 -68 0
-44 66 -67 68 0
-44 -66 67 68 0
-44 -66 -67 -68 0
-69 0
12 70 0
-12 -70 0
71 72 73 -74 0
71 72 -73 74 0
71 -72 73 74 0
71 -72 -73 -74 0
-71 72 73 74 0
-71 72 -73 -74 0
-71 -72 73 -74 0
-71 -72 -73 74 0
75 -76 0
-75 76 0
-77 0
78 79 0
-78 -79 0
34 66 80 0
34 -66 -80 0
-34 66 -80 0
-34 -66 80 0
-6 0
81 82 83 -84 0
81 82 -83 84 0
81 -82 83 84 0
81 -82 -83 -84 0
-81 82 83 84 0
-81 82 -83 -84 0
-81 -82 83 -84 0
-81 -82 -83 84 0
80 -85 0
-80 85 0
21 86 87 -88 0
21 86 -87 88 0
21 -86 87 88 0
21 -86 -87 -88 0
-21 86 87 88 0
-21 86 -87 -88 0
-21 -86 87 -88 0
-21 -86 -87 88 0
13 49 53 57 89 -90 0
13 49 53 57 -89 90 0
13 49 53 -57 89 90 0
13 49 53 -57 -89 -90 0
13 49 -53 57 89 90 0
13 49 -53 57 -89 -90 0
13 49 -53 -57 89 -90 0
13 49 -53 -57 -89 90 0
13 -49 53 57 89 90 0
13 -49 53 57 -89 -90 0
13 -49 53 -57 89 -90 0
13 -49 53 -57 -89 90 0
13 -49 -53 57 89 -90 0
13 -49 -53 57 -89 90 0
13 -49 -53 -57 89 90 0
13 -49 -53 -57 -89 -90 0
-13 49 53 57 89 90 0
-13 49 53 57 -89 -90 0
-13 49 53 -57 89 -90 0
-13 49 53 -57 -89 90 0
-13 49 -53 57 89 -90 0
-13 49 -53 57 -89 90 0
-13 49 -53 -57 89 90 0
-13 49 -53 -57 -89 -90 0
-13 -49 53 57 89 -90 0
-13 -49 53 57 -89 90 0
-13 -49 53 -57 89 90 0
-13 -49 53 -57 -89 -90 0
-13 -49 -53 57 89 90 0
-13 -49 -53 57 -89 -90 0
-13 -49 -53 -57 89 -90 0
-13 -49 -53 -57 -89 90 0
91 0
45 50 92 93 0
45 50 -92 -93 0
45 -50 92 -93 0
45 -50 -92 93 0
-45 50 92 -93 0
-45 50 -92 93 0
-45 -50 92 93 0
-45 -50 -92 -93 0
7 63 94 95 0
7 63 -94 -95 0
7 -63 94 -95 0
7 -63 -94 95 0
-7 63 94 -95 0
-7 63 -94 95 0
-7 -63 94 95 0
-7 -63 -94 -95 0
96 97 98 0
96 -97 -98 0
-96 97 -98 0
-96 -97 98 0
99 100 0
-99 -100 0
101 0
102 0
103 -104 0
-103 104 0
89 0
105 106 -107 0
105 -106 107 0
-105 106 107 0
-105 -106 -107 0
46 103 108 -109 0
46 103 -108 109 0
46 -103 108 109 0
46 -103 -108 -109 0
-46 103 108 109 0
-46 103 -108 -109 0
-46 -103 108 -109 0
-46 -103 -108 109 0
-36 0
110 -111 0
-110 111 0
-47 0
37 0
30 54 71 91 112 0
30 54 71 -91 -112 0
30 54 -71 91 -112 0
30 54 -71 -91 112 0
30 -54 71 91 -112 0
30 -54 71 -91 112 0
30 -54 -71 91 112 0
30 -54 -71 -91 -112 0
-30 54 71 91 -112 0
-30 54 71 -91 112 0
-30 54 -71 91 112 0
-30 54 -71 -91 -112 0
-30 -54 71 91 112 0
-30 -54 71 -91 -112 0
-30 -54 -71 91 -112 0
-30 -54 -71 -91 112 0
8 72 113 0
8 -72 -113 0
-8 72 -113 0
-8 -72 113 0
58 0
5 114 0
-5 -114 0
9 31 90 115 116 117 118 119 120 0
9 31 90 115 116 117 118 -119 -120 0
9 31 90 115 116 117 -118 119 -120 0
9 31 90 115 116 117 -118 -119 120 0
9 31 90 115 116 -117 118 119 -120 0
9 31 90 115 116 -117 118 -119 120 0
9 31 90 115 116 -117 -118 119 120 0
9 31 90 115 116 -117 -118 -119 -120 0
9 31 90 115 -116 117 118 119 -120 0
9 31 90 115 -116 117 118 -119 120 0
9 31 90 115 -116 117 -118 119 120 0
9 31 90 115 -116 117 -118 -119 -120 0
9 31 90 115 -116 -117 118 119 120 0
9 31 90 115 -116 -117 118 -119 -120 0
9 31 90 115 -116 -117 -118 119 -120 0
9 31 90 115 -116 -117 -118 -119 120 0
9 31 90 -115 116 117 118 119 -120 0
9 31 90 -115 116 117 118 -119 120 0
9 31 90 -115 116 117 -118 119 120 0
9 31 90 -115 116 117 -118 -119 -120 0
9 31 90 -115 116 -117 118 119 120 0
9 31 90 -115 116 -117 118 -119 -120 0
9 31 90 -115 116 -117 -118 119 -120 0
9 31 90 -115 116 -117 -118 -119 120 0
9 31 90 -115 -116 117 118 119 120 0
9 31 90 -115 -116 117 118 -119 -120 0
9 31 90 -115 -116 117 -118 119 -120 0
9 31 90 -115 -116 117 -118 -119 120 0
9 31 90 -115 -116 -117 118 119 -120 0
9 31 90 -115 -116 -117 118 -119 120 0
9 31 90 -115 -116 -117 -118 119 120 0
9 31 90 -115 -116 -117 -118 -119 -120 0
9 31 -90 115 116 117 118 119 -120 0
9 31 -90 115 116 117 118 -119 120 0
9 31 -90 115 116 117 -118 119 120 0
9 31 -90 115 116 117 -118 -119 -120 0
9 31 -90 115 116 -117 118 119 120 0
9 31 -90 115 116 -117 118 -119 -120 0
9 31 -90 115 116 -117 -118 119 -120 0
9 31 -90 115 116 -117 -118 -119 120 0
9 31 -90 115 -116 117 118 119 120 0
9 31 -90 115 -116 117 118 -119 -120 0
9 31 -90 115 -116 117 -118 119 -120 0
9 31 -90 115 -116 117 -118 -119 120 0
9 31 -90 115 -116 -117 118 119 -120 0
9 31 -90 115 -116 -117 118 -119 120 0
9 31 -90 115 -116 -117 -118 119 120 0
9 31 -90 115 -116 -117 -118 -119 -120 0
9 31 -90 -115 116 117 118 119 120 0
9 31 -90 -115 116 117 118 -119 -120 0
9 31 -90 -115 116 117 -118 119 -120 0
9 31 -90 -115 116 117 -118 -119 120 0
9 31 -90 -115 116 -117 118 119 -120 0
9 31 -90 -115 116 -117 118 -119 120 0
9 31 -90 -115 116 -117 -118 119 120 0
9 31 -90 -115 116 -117 -118 -119 -120 0
9 31 -90 -115 -116 117 118 119 -120 0
9 31 -90 -115 -116 117 118 -119 120 0
9 31 -90 -115 -116 117 -118 119 120 0
9 31 -90 -115 -116 117 -118 -119 -120 0
9 31 -90 -115 -116 -117 118 119 120 0
9 31 -90 -115 -116 -117 118 -119 -120 0
9 31 -90 -115 -116 -117 -118 119 -120 0
9 31 -90 -115 -116 -117 -118 -119 120 0
9 -31 90 115 116 117 118 119 -120 0
9 -31 90 115 116 117 118 -119 120 0
9 -31 90 115 116 117 -118 119 120 0
9 -31 90 115 116 117 -118 -119 -120 0
9 -31 90 115 116 -117 118 119 120 0
9 -31 90 115 116 -117 118 -119 -120 0
9 -31 90 115 116 -117 -118 119 -120 0
9 -31 90 115 116 -117 -118 -119 120 0
9 -31 90 115 -116 117 118 119 120 0
9 -31 90 115 -116 117 118 -119 -120 0
9 -31 90 115 -116 117 -118 119 -120 0
9 -31 90 115 -116 117 -118 -119 120 0
9 -31 90 115 -116 -117 118 119 -120 0
9 -31 90 115 -116 -117 118 -119 120 0
9 -31 90 115 -116 -117 -118 119 120 0
9 -31 90 115 -116 -117 -118 -119 -120 0
9 -31 90 -115 116 117 118 119 120 0
9 -31 90 -115 116 117 118 -119 -120 0
9 -31 90 -115 116 117 -118 119 -120 0
9 -31 90 -115 116 117 -118 -119 120 0
9 -31 90 -115 116 -117 118 119 -120 0
9 -31 90 -115 116 -117 118 -119 120 0
9 -31 90 -115 116 -117 -118 119 120 0
9 -31 90 -115 116 -117 -118 -119 -120 0
9 -31 90 -115 -116 117 118 119 -120 0
9 -31 90 -115 -116 117 118 -119 120 0
9 -31 90 -115 -116 117 -118 119 120 0
9 -31 90 -115 -116 117 -118 -119 -120 0
9 -31 90 -115 -116 -117 118 119 120 0
9 -31 90 -115 -116 -117 118 -119 -120 0
9 -31 90 -115 -116 -117 -118 119 -120 0
9 -31 90 -115 -116 -117 -118 -119 120 0
9 -31 -90 115 116 117 118 119 120 0
9 -31 -90 115 116 117 118 -119 -120 0
9 -31 -90 115 116 117 -118 119 -120 0
9 -31 -90 115 116 117 -118 -119 120 0
9 -31 -90 115 116 -117 118 119 -120 0
9 -31 -90 115 116 -117 118 -119 120 0
9 -31 -90 115 116 -117 -118 119 120 0
9 -31 -90 115 116 -117 -118 -119 -120 0
9 -31 -90 115 -116 117 118 119 -120 0
9 -31 -90 115 -116 117 118 -119 120 0
9 -31 -90 115 -116 117 -118 119 120 0
9 -31 -90 115 -116 117 -118 -119 -120 0
9 -31 -90 115 -116 -117 118 119 120 0
9 -31 -90 115 -116 -117 118 -119 -120 0
9 -31 -90 115 -116 -117 -118 119 -120 0
9 -31 -90 115 -116 -117 -118 -119 120 0
9 -31 -90 -115 116 117 118 119 -120 0
9 -31 -90 -115 116 117 118 -119 120 0
9 -31 -90 -115 116 117 -118 119 120 0
9 -31 -90 -115 116 117 -118 -119 -120 0
9 -31 -90 -115 116 -117 118 119 120 0
9 -31 -90 -115 116 -117 118 -119 -120 0
9 -31 -90 -115 116 -117 -118 119 -120 0
9 -31 -90 -115 116 -117 -118 -119 120 0
9 -31 -90 -115 -116 117 118 119 120 0
9 -31 -90 -115 -116 117 118 -119 -120 0
9 -31 -90 -115 -116 117 -118 119 -120 0
9 -31 -90 -115 -116 117 -118 -119 120 0
9 -31 -90 -115 -116 -117 118 119 -120 0
9 -31 -90 -115 -116 -117 118 -119 120 0
9 -31 -90 -115 -116 -117 -118 119 120 0
9 -31 -90 -115 -116 -117 -118 -119 -120 0
-9 31 90 115 116 117 118 119 -120 0
-9 31 90 115 116 117 118 -119 120 0
-9 31 90 115 116 117 -118 119 120 0
-9 31 90 115 116 117 -118 -119 -120 0
-9 31 90 115 116 -117 118 119 120 0
-9 31 90 115 116 -117 118 -119 -120 0
-9 31 90 115 116 -117 -118 119 -120 0
-9 31 90 115 116 -117 -118 -119 120 0
-9 31 90 115 -116 117 118 119 120 0
-9 31 90 115 -116 117 118 -119 -120 0
-9 31 90 115 -116 117 -118 119 -120 0
-9 31 90 115 -116 117 -118 -119 120 0
-9 31 90 115 -116 -117 118 119 -120 0
-9 31 90 115 -116 -117 118 -119 120 0
-9 31 90 115 -116 -117 -118 119 120 0
-9 31 90 115 -116 -117 -118 -119 -120 0
-9 31 90 -115 116 117 118 119 120 0
-9 31 90 -115 116 117 118 -119 -120 0
-9 31 90 -115 116 117 -118 119 -120 0
-9 31 90 -115 116 117 -118 -119 120 0
-9 31 90 -115 116 -117 118 119 -120 0
-9 31 90 -115 116 -117 118 -119 120 0
-9 31 90 -115 116 -117 -118 119 120 0
-9 31 90 -115 116 -117 -118 -119 -120 0
-9 31 90 -115 -116 117 118 119 -120 0
-9 31 90 -115 -116 117 118 -119 120 0
-9 31 90 -115 -116 117 -118 119 120 0
-9 31 90 -115 -116 117 -118 -119 -120 0
-9 31 90 -115 -116 -117 118 119 120 0
-9 31 90 -115 -116 -117 118 -119 -120 0
-9 31 90 -115 -116 -117 -118 119 -120 0
-9 31 90 -115 -116 -117 -118 -119 120 0
-9 31 -90 115 116 117 118 119 120 0
-9 31 -90 115 116 117 118 -119 -120 0
-9 31 -90 115 116 117 -118 119 -120 0
-9 31 -90 115 116 117 -118 -119 120 0
-9 31 -90 115 116 -117 118 119 -120 0
-9 31 -90 115 116 -117 118 -119 120 0
-9 31 -90 115 116 -117 -118 119 120 0
-9 31 -90 115 116 -117 -118 -119 -120 0
-9 31 -90 115 -116 117 118 119 -120 0
-9 31 -90 115 -116 117 118 -119 120 0
-9 31 -90 115 -116 117 -118 119 120 0
-9 31 -90 115 -116 117 -118 -119 -120 0
-9 31 -90 115 -116 -117 118 119 120 0
-9 31 -90 115 -116 -117 118 -119 -120 0
-9 31 -90 115 -116 -117 -118 119 -120 0
-9 31 -90 115 -116 -117 -118 -119 120 0
-9 31 -90 -115 116 117 118 119 -120 0
-9 31 -90 -115 116 117 118 -119 120 0
-9 31 -90 -115 116 117 -118 119 120 0
-9 31 -90 -115 116 117 -118 -119 -120 0
-9 31 -90 -115 116 -117 118 119 120 0
-9 31 -90 -115 116 -117 118 -119 -120 0
-9 31 -90 -115 116 -117 -118 119 -120 0
-9 31 -90 -115 116 -117 -118 -119 120 0
-9 31 -90 -115 -116 117 118 119 120 0
-9 31 -90 -115 -116 117 118 -119 -120 0
-9 31 -90 -115 -116 117 -118 119 -120 0
-9 31 -90 -115 -116 117 -118 -119 120 0
-9 31 -90 -115 -116 -117 118 119 -120 0
-9 31 -90 -115 -116 -117 118 -119 120 0
-9 31 -90 -115 -116 -117 -118 119 120 0
-9 31 -90 -115 -116 -117 -118 -119 -120 0
-9 -31 90 115 116 117 118 119 120 0
-9 -31 90 115 116 117 118 -119 -120 0
-9 -31 90 115 116 117 -118 119 -120 0
-9 -31 90 115 116 117 -118 -119 120 0
-9 -31 90 115 116 -117 118 119 -120 0
-9 -31 90 115 116 -117 118 -119 120 0
-9 -31 90 115 116 -117 -118 119 120 0
-9 -31 90 115 116 -117 -118 -119 -120 0
-9 -31 90 115 -116 117 118 119 -120 0
-9 -31 90 115 -116 117 118 -119 120 0
-9 -31 90 115 -116 117 -118 119 120 0
-9 -31 90 115 -116 117 -118 -119 -120 0
-9 -31 90 115 -116 -117 118 119 120 0
-9 -31 90 115 -116 -117 118 -119 -120 0
-9 -31 90 115 -116 -117 -118 119 -120 0
-9 -31 90 115 -116 -117 -118 -119 120 0
-9 -31 90 -115 116 117 118 119 -120 0
-9 -31 90 -115 116 117 118 -119 120 0
-9 -31 90 -115 116 117 -118 119 120 0
-9 -31 90 -115 116 117 -118 -119 -120 0
-9 -31 90 -115 116 -117 118 119 120 0
-9 -31 90 -115 116 -117 118 -119 -120 0
-9 -31 90 -115 116 -117 -118 119 -120 0
-9 -31 90 -115 116 -117 -118 -119 120 0
-9 -31 90 -115 -116 117 118 119 120 0
-9 -31 90 -115 -116 117 118 -119 -120 0
-9 -31 90 -115 -116 117 -118 119 -120 0
-9 -31 90 -115 -116 117 -118 -119 120 0
-9 -31 90 -115 -116 -117 118 119 -120 0
-9 -31 90 -115 -116 -117 118 -119 120 0
-9 -31 90 -115 -116 -117 -118 119 120 0
-9 -31 90 -115 -116 -117 -118 -119 -120 0
-9 -31 -90 115 116 117 118 119 -120 0
-9 -31 -90 115 116 117 118 -119 120 0
-9 -31 -90 115 116 117 -118 119 120 0
-9 -31 -90 115 116 117 -118 -119 -120 0
-9 -31 -90 115 116 -117 118 119 120 0
-9 -31 -90 115 116 -117 118 -119 -120 0
-9 -31 -90 115 116 -117 -118 119 -120 0
-9 -31 -90 115 116 -117 -118 -119 120 0
-9 -31 -90 115 -116 117 118 119 120 0
-9 -31 -90 115 -116 117 118 -119 -120 0
-9 -31 -90 115 -116 117 -118 119 -120 0
-9 -31 -90 115 -116 117 -118 -119 120 0
-9 -31 -90 115 -116 -117 118 119 -120 0
-9 -31 -90 115 -116 -117 118 -119 120 0
-9 -31 -90 115 -116 -117 -118 119 120 0
-9 -31 -90 115 -116 -117 -118 -119 -120 0
-9 -31 -90 -115 116 117 118 119 120 0
-9 -31 -90 -115 116 117 118 -119 -120 0
-9 -31 -90 -115 116 117 -118 119 -120 0
-9 -31 -90 -115 116 117 -118 -119 120 0
-9 -31 -90 -115 116 -117 118 119 -120 0
-9 -31 -90 -115 116 -117 118 -119 120 0
-9 -31 -90 -115 116 -117 -118 119 120 0
-9 -31 -90 -115 116 -117 -118 -119 -120 0
-9 -31 -90 -115 -116 117 118 119 -120 0
-9 -31 -90 -115 -116 117 118 -119 120 0
-9 -31 -90 -115 -116 117 -118 119 120 0
-9 -31 -90 -115 -116 117 -118 -119 -120 0
-9 -31 -90 -115 -116 -117 118 119 120 0
-9 -31 -90 -115 -116 -117 118 -119 -120 0
-9 -31 -90 -115 -116 -117 -118 119 -120 0
-9 -31 -90 -115 -116 -117 -118 -119 120 0
4 25 39 60 78 113 115 121 0
4 25 39 60 78 113 -115 -121 0
4 25 39 60 78 -113 115 -121 0
4 25 39 60 78 -113 -115 121 0
4 25 39 60 -78 113 115 -121 0
4 25 39 60 -78 113 -115 121 0
4 25 39 60 -78 -113 115 121 0
4 25 39 60 -78 -113 -115 -121 0
4 25 39 -60 78 113 115 -121 0
4 25 39 -60 78 113 -115 121 0
4 25 39 -60 78 -113 115 121 0
4 25 39 -60 78 -113 -115 -121 0
4 25 39 -60 -78 113 115 121 0
4 25 39 -60 -78 113 -115 -121 0
4 25 39 -60 -78 -113 115 -121 0
4 25 39 -60 -78 -113 -115 121 0
4 25 -39 60 78 113 115 -121 0
4 25 -39 60 78 113 -115 121 0
4 25 -39 60 78 -113 115 121 0
4 25 -39 60 78 -113 -115 -121 0
4 25 -39 60 -78 113 115 121 0
4 25 -39 60 -78 113 -115 -121 0
4 25 -39 60 -78 -113 115 -121 0
4 25 -39 60 -78 -113 -115 121 0
4 25 -39 -60 78 113 115 121 0
4 25 -39 -60 78 113 -115 -121 0
4 25 -39 -60 78 -113 115 -121 0
4 25 -39 -60 78 -113 -115 121 0
4 25 -39 -60 -78 113 115 -121 0
4 25 -39 -60 -78 113 -115 121 0
4 25 -39 -60 -78 -113 115 121 0
4 25 -39 -60 -78 -113 -115 -121 0
4 -25 39 60 78 113 115 -121 0
4 -25 39 60 78 113 -115 121 0
4 -25 39 60 78 -113 115 121 0
4 -25 39 60 78 -113 -115 -121 0
4 -25 39 60 -78 113 115 121 0
4 -25 39 60 -78 113 -115 -121 0
4 -25 39 60 -78 -113 115 -121 0
4 -25 39 60 -78 -113 -115 121 0
4 -25 39 -60 78 113 115 121 0
4 -25 39 -60 78 113 -115 -121 0
4 -25 39 -60 78 -113 115 -121 0
4 -25 39 -60 78 -113 -115 121 0
4 -25 39 -60 -78 113 115 -121 0
4 -25 39 -60 -78 113 -115 121 0
4 -25 39 -60 -78 -113 115 121 0
4 -25 39 -60 -78 -113 -115 -121 0
4 -25 -39 60 78 113 115 121 0
4 -25 -39 60 78 113 -115 -121 0
4 -25 -39 60 78 -113 115 -121 0
4 -25 -39 60 78 -113 -115 121 0
4 -25 -39 60 -78 113 115 -121 0
4 -25 -39 60 -78 113 -115 121 0
4 -25 -39 60 -78 -113 115 121 0
4 -25 -39 60 -78 -113 -115 -121 0
4 -25 -39 -60 78 113 115 -121 0
4 -25 -39 -60 78 113 -115 121 0
4 -25 -39 -60 78 -113 115 121 0
4 -25 -39 -60 78 -113 -115 -121 0
4 -25 -39 -60 -78 113 115 121 0
4 -25 -39 -60 -78 113 -115 -121 0
4 -25 -39 -60 -78 -113 115 -121 0
4 -25 -39 -60 -78 -113 -115 121 0
-4 25 39 60 78 113 115 -121 0
-4 25 39 60 78 113 -115 121 0
-4 25 39 60 78 -113 115 121 0
-4 25 39 60 78 -113 -115 -121 0
-4 25 39 60 -78 113 115 121 0
-4 25 39 60 -78 113 -115 -121 0
-4 25 39 60 -78 -113 115 -121 0
-4 25 39 60 -78 -113 -115 121 0
-4 25 39 -60 78 113 115 121 0
-4 25 39 -60 78 113 -115 -121 0
-4 25 39 -60 78 -113 115 -121 0
-4 25 39 -60 78 -113 -115 121 0
-4 25 39 -60 -78 113 115 -121 0
-4 25 39 -60 -78 113 -115 121 0
-4 25 39 -60 -78 -113 115 121 0
-4 25 39 -60 -78 -113 -115 -121 0
-4 25 -39 60 78 113 115 121 0
-4 25 -39 60 78 113 -115 -121 0
-4 25 -39 60 78 -113 115 -121 0
-4 25 -39 60 78 -113 -115 121 0
-4 25 -39 60 -78 113 115 -121 0
-4 25 -39 60 -78 113 -115 121 0
-4 25 -39 60 -78 -113 115 121 0
-4 25 -39 60 -78 -113 -115 -121 0
-4 25 -39 -60 78 113 115 -121 0
-4 25 -39 -60 78 113 -115 121 0
-4 25 -39 -60 78 -113 115 121 0
-4 25 -39 -60 78 -113 -115 -121 0
-4 25 -39 -60 -78 113 115 121 0
-4 25 -39 -60 -78 113 -115 -121 0
-4 25 -39 -60 -78 -113 115 -121 0
-4 25 -39 -60 -78 -113 -115 121 0
-4 -25 39 60 78 113 115 121 0
-4 -25 39 60 78 113 -115 -121 0
-4 -25 39 60 78 -113 115 -121 0
-4 -25 39 60 78 -113 -115 121 0
-4 -25 39 60 -78 113 115 -121 0
-4 -25 39 60 -78 113 -115 121 0
-4 -25 39 60 -78 -113 115 121 0
-4 -25 39 60 -78 -113 -115 -121 0
-4 -25 39 -60 78 113 115 -121 0
-4 -25 39 -60 78 113 -115 121 0
-4 -25 39 -60 78 -113 115 121 0
-4 -25 39 -60 78 -113 -115 -121 0
-4 -25 39 -60 -78 113 115 121 0
-4 -25 39 -60 -78 113 -115 -121 0
-4 -25 39 -60 -78 -113 115 -121 0
-4 -25 39 -60 -78 -113 -115 121 0
-4 -25 -39 60 78 113 115 -121 0
-4 -25 -39 60 78 113 -115 121 0
-4 -25 -39 60 78 -113 115 121 0
-4 -25 -39 60 78 -113 -115 -121 0
-4 -25 -39 60 -78 113 115 121 0
-4 -25 -39 60 -78 113 -115 -121 0
-4 -25 -39 60 -78 -113 115 -121 0
-4 -25 -39 60 -78 -113 -115 121 0
-4 -25 -39 -60 78 113 115 121 0
-4 -25 -39 -60 78 113 -115 -121 0
-4 -25 -39 -60 78 -113 115 -121 0
-4 -25 -39 -60 78 -113 -115 121 0
-4 -25 -39 -60 -78 113 115 -121 0
-4 -25 -39 -60 -78 113 -115 121 0
-4 -25 -39 -60 -78 -113 115 121 0
-4 -25 -39 -60 -78 -113 -115 -121 0
-96 0
59 122 0
-59 -122 0
40 108 -116 0
40 -108 116 0
-40 108 116 0
-40 -108 -116 0
26 -123 0
-26 123 0
35 124 125 126 127 0
35 124 125 -126 -127 0
35 124 -125 126 -127 0
35 124 -125 -126 127 0
35 -124 125 126 -127 0
35 -124 125 -126 127 0
35 -124 -125 126 127 0
35 -124 -125 -126 -127 0
-35 124 125 126 -127 0
-35 124 125 -126 127 0
-35 124 -125 126 127 0
-35 124 -125 -126 -127 0
-35 -124 125 126 127 0
-35 -124 125 -126 -127 0
-35 -124 -125 126 -127 0
-35 -124 -125 -126 127 0
123 128 129 130 0
123 128 -129 -130 0
123 -128 129 -130 0
123 -128 -129 130 0
-123 128 129 -130 0
-123 128 -129 130 0
-123 -128 129 130 0
-123 -128 -129 -130 0
131 0
75 132 0
-75 -132 0
61 133 0
-61 -133 0
-86 0
70 99 110 124 0
70 99 -110 -124 0
70 -99 110 -124 0
70 -99 -110 124 0
-70 99 110 -124 0
-70 99 -110 124 0
-70 -99 110 124 0
-70 -99 -110 -124 0
79 134 0
-79 -134 0
27 97 0
-27 -97 0
20 -125 0
-20 125 0
22 0
112 114 128 132 -135 0
112 114 128 -132 135 0
112 114 -128 132 135 0
112 114 -128 -132 -135 0
112 -114 128 132 135 0
112 -114 128 -132 -135 0
112 -114 -128 132 -135 0
112 -114 -128 -132 135 0
-112 114 128 132 135 0
-112 114 128 -132 -135 0
-112 114 -128 132 -135 0
-112 114 -128 -132 135 0
-112 -114 128 132 -135 0
-112 -114 128 -132 135 0
-112 -114 -128 132 135 0
-112 -114 -128 -132 -135 0
92 100 136 0
92 -100 -136 0
-92 100 -136 0
-92 -100 136 0
14 69 109 137 0
14 69 -109 -137 0
14 -69 109 -137 0
14 -69 -109 137 0
-14 69 109 -137 0
-14 69 -109 137 0
-14 -69 109 137 0
-14 -69 -109 -137 0
-138 0
55 77 117 135 139 140 0
55 77 117 135 -139 -140 0
55 77 117 -135 139 -140 0
55 77 117 -135 -139 140 0
55 77 -117 135 139 -140 0
55 77 -117 135 -139 140 0
55 77 -117 -135 139 140 0
55 77 -117 -135 -139 -140 0
55 -77 117 135 139 -140 0
55 -77 117 135 -139 140 0
55 -77 117 -135 139 140 0
55 -77 117 -135 -139 -140 0
55 -77 -117 135 139 140 0
55 -77 -117 135 -139 -140 0
55 -77 -117 -135 139 -140 0
55 -77 -117 -135 -139 140 0
-55 77 117 135 139 -140 0
-55 77 117 135 -139 140 0
-55 77 117 -135 139 140 0
-55 77 117 -135 -139 -140 0
-55 77 -117 135 139 140 0
-55 77 -117 135 -139 -140 0
-55 77 -117 -135 139 -140 0
-55 77 -117 -135 -139 140 0
-55 -77 117 135 139 140 0
-55 -77 117 135 -139 -140 0
-55 -77 117 -135 139 -140 0
-55 -77 117 -135 -139 140 0
-55 -77 -117 135 139 -140 0
-55 -77 -117 135 -139 140 0
-55 -77 -117 -135 139 140 0
-55 -77 -117 -135 -139 -140 0
76 -111 0
-76 111 0
87 94 -98 0
87 -94 98 0
-87 94 98 0
-87 -94 -98 0
48 65 -138 0
48 -65 138 0
-48 65 138 0
-48 -65 -138 0
10 56 105 118 121 129 141 0
10 56 105 118 121 -129 -141 0
10 56 105 118 -121 129 -141 0
10 56 105 118 -121 -129 141 0
10 56 105 -118 121 129 -141 0
10 56 105 -118 121 -129 141 0
10 56 105 -118 -121 129 141 0
10 56 105 -118 -121 -129 -141 0
10 56 -105 118 121 129 -141 0
10 56 -105 118 121 -129 141 0
10 56 -105 118 -121 129 141 0
10 56 -105 118 -121 -129 -141 0
10 56 -105 -118 121 129 141 0
10 56 -105 -118 121 -129 -141 0
10 56 -105 -118 -121 129 -141 0
10 56 -105 -118 -121 -129 141 0
10 -56 105 118 121 129 -141 0
10 -56 105 118 121 -129 141 0
10 -56 105 118 -121 129 141 0
10 -56 105 118 -121 -129 -141 0
10 -56 105 -118 121 129 141 0
10 -56 105 -118 121 -129 -141 0
10 -56 105 -118 -121 129 -141 0
10 -56 105 -118 -121 -129 141 0
10 -56 -105 118 121 129 141 0
10 -56 -105 118 121 -129 -141 0
10 -56 -105 118 -121 129 -141 0
10 -56 -105 118 -121 -129 141 0
10 -56 -105 -118 121 129 -141 0
10 -56 -105 -118 121 -129 141 0
10 -56 -105 -118 -121 129 141 0
10 -56 -105 -118 -121 -129 -141 0
-10 56 105 118 121 129 -141 0
-10 56 105 118 121 -129 141 0
-10 56 105 118 -121 129 141 0
-10 56 105 118 -121 -129 -141 0
-10 56 105 -118 121 129 141 0
-10 56 105 -118 121 -129 -141 0
-10 56 105 -118 -121 129 -141 0
-10 56 105 -118 -121 -129 141 0
-10 56 -105 118 121 129 141 0
-10 56 -105 118 121 -129 -141 0
-10 56 -105 118 -121 129 -141 0
-10 56 -105 118 -121 -129 141 0
-10 56 -105 -118 121 129 -141 0
-10 56 -105 -118 121 -129 141 0
-10 56 -105 -118 -121 129 141 0
-10 56 -105 -118 -121 -129 -141 0
-10 -56 105 118 121 129 141 0
-10 -56 105 118 121 -129 -141 0
-10 -56 105 118 -121 129 -141 0
-10 -56 105 118 -121 -129 141 0
-10 -56 105 -118 121 129 -141 0
-10 -56 105 -118 121 -129 141 0
-10 -56 105 -118 -121 129 141 0
-10 -56 105 -118 -121 -129 -141 0
-10 -56 -105 118 121 129 -141 0
-10 -56 -105 118 121 -129 141 0
-10 -56 -105 118 -121 129 141 0
-10 -56 -105 118 -121 -129 -141 0
-10 -56 -105 -118 121 129 141 0
-10 -56 -105 -118 121 -129 -141 0
-10 -56 -105 -118 -121 129 -141 0
-10 -56 -105 -118 -121 -129 141 0
62 126 142 143 0
62 126 -142 -143 0
62 -126 142 -143 0
62 -126 -142 143 0
-62 126 142 -143 0
-62 126 -142 143 0
-62 -126 142 143 0
-62 -126 -142 -143 0
38 -144 0
-38 144 0
104 145 0
-104 -145 0
33 0
88 -134 0
-88 134 0
146 0
67 136 139 0
67 -136 -139 0
-67 136 -139 0
-67 -136 139 0
-122 0
102 130 0
-102 -130 0
-147 0
106 146 147 148 -149 0
106 146 147 -148 149 0
106 146 -147 148 149 0
106 146 -147 -148 -149 0
106 -146 147 148 149 0
106 -146 147 -148 -149 0
106 -146 -147 148 -149 0
106 -146 -147 -148 149 0
-106 146 147 148 149 0
-106 146 147 -148 -149 0
-106 146 -147 148 -149 0
-106 146 -147 -148 149 0
-106 -146 147 148 -149 0
-106 -146 147 -148 149 0
-106 -146 -147 148 149 0
-106 -146 -147 -148 -149 0
73 81 107 127 137 -148 0
73 81 107 127 -137 148 0
73 81 107 -127 137 148 0
73 81 107 -127 -137 -148 0
73 81 -107 127 137 148 0
73 81 -107 127 -137 -148 0
73 81 -107 -127 137 -148 0
73 81 -107 -127 -137 148 0
73 -81 107 127 137 148 0
73 -81 107 127 -137 -148 0
73 -81 107 -127 137 -148 0
73 -81 107 -127 -137 148 0
73 -81 -107 127 137 -148 0
73 -81 -107 127 -137 148 0
73 -81 -107 -127 137 148 0
73 -81 -107 -127 -137 -148 0
-73 81 107 127 137 148 0
-73 81 107 127 -137 -148 0
-73 81 107 -127 137 -148 0
-73 81 107 -127 -137 148 0
-73 81 -107 127 137 -148 0
-73 81 -107 127 -137 148 0
-73 81 -107 -127 137 148 0
-73 81 -107 -127 -137 -148 0
-73 -81 107 127 137 -148 0
-73 -81 107 127 -137 148 0
-73 -81 107 -127 137 148 0
-73 -81 107 -127 -137 -148 0
-73 -81 -107 127 137 148 0
-73 -81 -107 127 -137 -148 0
-73 -81 -107 -127 137 -148 0
-73 -81 -107 -127 -137 148 0
28 68 101 141 0
28 68 -101 -141 0
28 -68 101 -141 0
28 -68 -101 141 0
-28 68 101 -141 0
-28 68 -101 141 0
-28 -68 101 141 0
-28 -68 -101 -141 0
85 144 145 0
85 -144 -145 0
-85 144 -145 0
-85 -144 145 0
64 131 0
-64 -131 0
15 82 93 -119 0
15 82 -93 119 0
15 -82 93 119 0
15 -82 -93 -119 0
-15 82 93 119 0
-15 82 -93 -119 0
-15 -82 93 -119 0
-15 -82 -93 119 0
42 120 133 0
42 -120 -133 0
-42 120 -133 0
-42 -120 133 0
16 51 83 -149 0
16 51 -83 149 0
16 -51 83 149 0
16 -51 -83 -149 0
-16 51 83 149 0
-16 51 -83 -149 0
-16 -51 83 -149 0
-16 -51 -83 149 0
142 0
-84 0
52 -150 0
-52 150 0
43 74 95 140 143 150 0
43 74 95 140 -143 -150 0
43 74 95 -140 143 -150 0
43 74 95 -140 -143 150 0
43 74 -95 140 143 -150 0
43 74 -95 140 -143 150 0
43 74 -95 -140 143 150 0
43 74 -95 -140 -143 -150 0
43 -74 95 140 143 -150 0
43 -74 95 140 -143 150 0
43 -74 95 -140 143 150 0
43 -74 95 -140 -143 -150 0
43 -74 -95 140 143 150 0
43 -74 -95 140 -143 -150 0
43 -74 -95 -140 143 -150 0
43 -74 -95 -140 -143 150 0
-43 74 95 140 143 -150 0
-43 74 95 140 -143 150 0
-43 74 95 -140 143 150 0
-43 74 95 -140 -143 -150 0
-43 74 -95 140 143 150 0
-43 74 -95 140 -143 -150 0
-43 74 -95 -140 143 -150 0
-43 74 -95 -140 -143 150 0
-43 -74 95 140 143 150 0
-43 -74 95 140 -143 -150 0
-43 -74 95 -140 143 -150 0
-43 -74 95 -140 -143 150 0
-43 -74 -95 140 143 -150 0
-43 -74 -95 140 -143 150 0
-43 -74 -95 -140 143 150 0
-43 -74 -95 -140 -143 -150 0
